words_hard_train/9057.qaiger
aag 79 16 0 1 63
2
4
12
16
18
26
32
34
42
50
60
74
76
84
88
124
159
6 2 5
8 3 4
10 7 9
14 11 13
20 16 19
22 17 18
24 21 23
28 25 27
30 15 29
36 32 35
38 33 34
40 37 39
44 40 42
46 24 26
48 45 47
52 50 43
54 51 42
56 53 55
58 56 34
62 60 27
64 61 26
66 63 65
68 66 18
70 59 69
72 67 19
78 74 77
80 75 76
82 79 81
86 82 84
90 88 13
92 89 12
94 91 93
96 94 4
98 87 97
100 73 99
102 95 5
104 100 103
106 70 105
108 57 35
110 107 109
112 41 43
114 110 113
116 48 115
118 30 117
120 10 12
122 119 121
126 124 85
128 125 84
130 127 129
132 130 76
134 123 133
136 131 77
138 135 137
140 11 130
142 57 41
144 140 142
146 67 95
148 83 25
150 146 148
152 144 150
154 139 153
156 138 152
158 155 157
i0 2 y2[6]
i1 1 x1[1]
i2 1 x1[6]
i3 2 y2[5]
i4 1 x1[2]
i5 1 x1[5]
i6 2 y2[4]
i7 1 x1[3]
i8 1 x1[4]
i9 2 y2[3]
i10 2 y2[2]
i11 2 y2[0]
i12 1 x1[7]
i13 1 x1[0]
i14 2 y2[1]
i15 2 y2[7]
o0 bv[0]
c
simplified
  >=
    1 x1
    add
      1
      xor
        reverse
          1 x1
        2 y2
