words_hard_train/9057.qaiger.qdimacs
p cnf 79 190
a 2 6 38 9 42 13 17 21 0
e 1 3 4 5 7 8 10 11 12 14 15 16 18 19 20 22 23 24 25 26 27 28 29 30 31 32 33 34 35 36 37 39 40 41 43 44 45 46 47 48 49 50 51 52 53 54 55 56 57 58 59 60 61 62 63 64 65 66 67 68 69 70 71 72 73 74 75 76 77 78 79 0
-1 2 3 0
1 -3 0
-2 -3 0
1 -2 4 0
-1 -4 0
2 -4 0
3 4 5 0
-3 -5 0
-4 -5 0
5 6 7 0
-5 -7 0
-6 -7 0
-8 9 10 0
8 -10 0
-9 -10 0
8 -9 11 0
-8 -11 0
9 -11 0
10 11 12 0
-10 -12 0
-11 -12 0
12 13 14 0
-12 -14 0
-13 -14 0
7 14 15 0
-7 -15 0
-14 -15 0
-16 17 18 0
16 -18 0
-17 -18 0
16 -17 19 0
-16 -19 0
17 -19 0
18 19 20 0
-18 -20 0
-19 -20 0
-20 -21 22 0
20 -22 0
21 -22 0
-12 -13 23 0
12 -23 0
13 -23 0
22 23 24 0
-22 -24 0
-23 -24 0
-25 21 26 0
25 -26 0
-21 -26 0
25 -21 27 0
-25 -27 0
21 -27 0
26 27 28 0
-26 -28 0
-27 -28 0
-28 -17 29 0
28 -29 0
17 -29 0
-30 13 31 0
30 -31 0
-13 -31 0
30 -13 32 0
-30 -32 0
13 -32 0
31 32 33 0
-31 -33 0
-32 -33 0
-33 -9 34 0
33 -34 0
9 -34 0
29 34 35 0
-29 -35 0
-34 -35 0
33 9 36 0
-33 -36 0
-9 -36 0
-37 38 39 0
37 -39 0
-38 -39 0
37 -38 40 0
-37 -40 0
38 -40 0
39 40 41 0
-39 -41 0
-40 -41 0
-41 -42 43 0
41 -43 0
42 -43 0
-44 6 45 0
44 -45 0
-6 -45 0
44 -6 46 0
-44 -46 0
6 -46 0
45 46 47 0
-45 -47 0
-46 -47 0
-47 -2 48 0
47 -48 0
2 -48 0
43 48 49 0
-43 -49 0
-48 -49 0
36 49 50 0
-36 -50 0
-49 -50 0
47 2 51 0
-47 -51 0
-2 -51 0
-50 51 52 0
50 -52 0
-51 -52 0
-35 52 53 0
35 -53 0
-52 -53 0
28 17 54 0
-28 -54 0
-17 -54 0
53 54 55 0
-53 -55 0
-54 -55 0
20 21 56 0
-20 -56 0
-21 -56 0
-55 56 57 0
55 -57 0
-56 -57 0
-24 57 58 0
24 -58 0
-57 -58 0
-15 58 59 0
15 -59 0
-58 -59 0
-5 -6 60 0
5 -60 0
6 -60 0
59 60 61 0
-59 -61 0
-60 -61 0
-62 42 63 0
62 -63 0
-42 -63 0
62 -42 64 0
-62 -64 0
42 -64 0
63 64 65 0
-63 -65 0
-64 -65 0
-65 -38 66 0
65 -66 0
38 -66 0
61 66 67 0
-61 -67 0
-66 -67 0
65 38 68 0
-65 -68 0
-38 -68 0
67 68 69 0
-67 -69 0
-68 -69 0
5 -65 70 0
-5 -70 0
65 -70 0
28 20 71 0
-28 -71 0
-20 -71 0
-70 -71 72 0
70 -72 0
71 -72 0
33 47 73 0
-33 -73 0
-47 -73 0
41 12 74 0
-41 -74 0
-12 -74 0
-73 -74 75 0
73 -75 0
74 -75 0
-72 -75 76 0
72 -76 0
75 -76 0
69 76 77 0
-69 -77 0
-76 -77 0
-69 -76 78 0
69 -78 0
76 -78 0
77 78 79 0
-77 -79 0
-78 -79 0
-79 0
